c tiny blocksworld satplan A B horizon 2 goal On(A,B)
p cnf 43 371
1 0
2 0
5 0
6 0
9 0
-3 0
-4 0
-7 0
-8 0
21 0
-1 -3 0
-2 -4 0
-3 -4 0
-7 -3 0
-8 -4 0
-7 -1 0
-8 -2 0
-3 -6 0
-4 -5 0
-7 -8 0
-9 -7 0
-9 -8 0
9 7 8 0
-10 -12 0
-11 -13 0
-12 -13 0
-16 -12 0
-17 -13 0
-16 -10 0
-17 -11 0
-12 -15 0
-13 -14 0
-16 -17 0
-18 -16 0
-18 -17 0
18 16 17 0
-19 -21 0
-20 -22 0
-21 -22 0
-25 -21 0
-26 -22 0
-25 -19 0
-26 -20 0
-21 -24 0
-22 -23 0
-25 -26 0
-27 -25 0
-27 -26 0
27 25 26 0
28 29 30 31 32 33 34 35 0
-28 -29 0
-28 -30 0
-28 -31 0
-28 -32 0
-28 -33 0
-28 -34 0
-28 -35 0
-29 -30 0
-29 -31 0
-29 -32 0
-29 -33 0
-29 -34 0
-29 -35 0
-30 -31 0
-30 -32 0
-30 -33 0
-30 -34 0
-30 -35 0
-31 -32 0
-31 -33 0
-31 -34 0
-31 -35 0
-32 -33 0
-32 -34 0
-32 -35 0
-33 -34 0
-33 -35 0
-34 -35 0
-28 9 0
-28 5 0
-28 1 0
-28 16 0
-28 -10 0
-28 -18 0
-28 -2 11 0
-28 2 -11 0
-28 -3 12 0
-28 3 -12 0
-28 -4 13 0
-28 4 -13 0
-28 -5 14 0
-28 5 -14 0
-28 -6 15 0
-28 6 -15 0
-28 -8 17 0
-28 8 -17 0
-29 9 0
-29 6 0
-29 2 0
-29 17 0
-29 -11 0
-29 -18 0
-29 -1 10 0
-29 1 -10 0
-29 -3 12 0
-29 3 -12 0
-29 -4 13 0
-29 4 -13 0
-29 -5 14 0
-29 5 -14 0
-29 -6 15 0
-29 6 -15 0
-29 -7 16 0
-29 7 -16 0
-30 7 0
-30 14 0
-30 10 0
-30 18 0
-30 -16 0
-30 -2 11 0
-30 2 -11 0
-30 -3 12 0
-30 3 -12 0
-30 -4 13 0
-30 4 -13 0
-30 -6 15 0
-30 6 -15 0
-30 -8 17 0
-30 8 -17 0
-31 8 0
-31 11 0
-31 15 0
-31 18 0
-31 -17 0
-31 -1 10 0
-31 1 -10 0
-31 -3 12 0
-31 3 -12 0
-31 -4 13 0
-31 4 -13 0
-31 -5 14 0
-31 5 -14 0
-31 -7 16 0
-31 7 -16 0
-32 7 0
-32 6 0
-32 18 0
-32 12 0
-32 -15 0
-32 -16 0
-32 -1 10 0
-32 1 -10 0
-32 -2 11 0
-32 2 -11 0
-32 -4 13 0
-32 4 -13 0
-32 -5 14 0
-32 5 -14 0
-32 -8 17 0
-32 8 -17 0
-33 8 0
-33 5 0
-33 18 0
-33 13 0
-33 -14 0
-33 -17 0
-33 -1 10 0
-33 1 -10 0
-33 -2 11 0
-33 2 -11 0
-33 -3 12 0
-33 3 -12 0
-33 -6 15 0
-33 6 -15 0
-33 -7 16 0
-33 7 -16 0
-34 9 0
-34 3 0
-34 5 0
-34 15 0
-34 16 0
-34 -18 0
-34 -12 0
-34 -1 10 0
-34 1 -10 0
-34 -2 11 0
-34 2 -11 0
-34 -4 13 0
-34 4 -13 0
-34 -5 14 0
-34 5 -14 0
-34 -8 17 0
-34 8 -17 0
-35 9 0
-35 4 0
-35 6 0
-35 14 0
-35 17 0
-35 -18 0
-35 -13 0
-35 -1 10 0
-35 1 -10 0
-35 -2 11 0
-35 2 -11 0
-35 -3 12 0
-35 3 -12 0
-35 -6 15 0
-35 6 -15 0
-35 -7 16 0
-35 7 -16 0
36 37 38 39 40 41 42 43 0
-36 -37 0
-36 -38 0
-36 -39 0
-36 -40 0
-36 -41 0
-36 -42 0
-36 -43 0
-37 -38 0
-37 -39 0
-37 -40 0
-37 -41 0
-37 -42 0
-37 -43 0
-38 -39 0
-38 -40 0
-38 -41 0
-38 -42 0
-38 -43 0
-39 -40 0
-39 -41 0
-39 -42 0
-39 -43 0
-40 -41 0
-40 -42 0
-40 -43 0
-41 -42 0
-41 -43 0
-42 -43 0
-36 18 0
-36 14 0
-36 10 0
-36 25 0
-36 -19 0
-36 -27 0
-36 -11 20 0
-36 11 -20 0
-36 -12 21 0
-36 12 -21 0
-36 -13 22 0
-36 13 -22 0
-36 -14 23 0
-36 14 -23 0
-36 -15 24 0
-36 15 -24 0
-36 -17 26 0
-36 17 -26 0
-37 18 0
-37 15 0
-37 11 0
-37 26 0
-37 -20 0
-37 -27 0
-37 -10 19 0
-37 10 -19 0
-37 -12 21 0
-37 12 -21 0
-37 -13 22 0
-37 13 -22 0
-37 -14 23 0
-37 14 -23 0
-37 -15 24 0
-37 15 -24 0
-37 -16 25 0
-37 16 -25 0
-38 16 0
-38 23 0
-38 19 0
-38 27 0
-38 -25 0
-38 -11 20 0
-38 11 -20 0
-38 -12 21 0
-38 12 -21 0
-38 -13 22 0
-38 13 -22 0
-38 -15 24 0
-38 15 -24 0
-38 -17 26 0
-38 17 -26 0
-39 17 0
-39 20 0
-39 24 0
-39 27 0
-39 -26 0
-39 -10 19 0
-39 10 -19 0
-39 -12 21 0
-39 12 -21 0
-39 -13 22 0
-39 13 -22 0
-39 -14 23 0
-39 14 -23 0
-39 -16 25 0
-39 16 -25 0
-40 16 0
-40 15 0
-40 27 0
-40 21 0
-40 -24 0
-40 -25 0
-40 -10 19 0
-40 10 -19 0
-40 -11 20 0
-40 11 -20 0
-40 -13 22 0
-40 13 -22 0
-40 -14 23 0
-40 14 -23 0
-40 -17 26 0
-40 17 -26 0
-41 17 0
-41 14 0
-41 27 0
-41 22 0
-41 -23 0
-41 -26 0
-41 -10 19 0
-41 10 -19 0
-41 -11 20 0
-41 11 -20 0
-41 -12 21 0
-41 12 -21 0
-41 -15 24 0
-41 15 -24 0
-41 -16 25 0
-41 16 -25 0
-42 18 0
-42 12 0
-42 14 0
-42 24 0
-42 25 0
-42 -27 0
-42 -21 0
-42 -10 19 0
-42 10 -19 0
-42 -11 20 0
-42 11 -20 0
-42 -13 22 0
-42 13 -22 0
-42 -14 23 0
-42 14 -23 0
-42 -17 26 0
-42 17 -26 0
-43 18 0
-43 13 0
-43 15 0
-43 23 0
-43 26 0
-43 -27 0
-43 -22 0
-43 -10 19 0
-43 10 -19 0
-43 -11 20 0
-43 11 -20 0
-43 -12 21 0
-43 12 -21 0
-43 -15 24 0
-43 15 -24 0
-43 -16 25 0
-43 16 -25 0
